166	32	4	63	
13	11	11	9

0	0	0	0	0	0	3	1	2	3
1	0	0	5	0	10	1	6
2	0	9	0	0	4	1	5
3	0	0	1	0	3	3	4	5	8
4	6	0	0	0	1	3	7	18	20
5	0	0	4	0	5	1	22
6	0	10	0	0	4	1	18
7	0	0	0	7	6	3	9	14	16
8	5	0	0	0	4	3	13	17	23
9	0	0	0	8	4	3	10	17	22
10	10	0	0	0	7	3	11	12	21
11	0	0	9	0	2	1	15
12	3	0	0	0	3	2	19	27
13	0	0	0	3	5	2	19	26
14	0	0	8	0	6	2	23	30
15	0	9	0	0	10	2	19	25
16	0	0	8	0	4	3	21	22	26
17	9	0	0	0	3	1	24
18	7	0	0	0	7	3	21	25	30
19	0	0	0	4	9	1	24
20	0	2	0	0	4	2	24	25
21	0	0	3	0	3	1	29
22	0	0	9	0	9	2	23	27
23	0	6	0	0	3	2	28	29
24	0	0	2	0	10	2	28	30
25	0	4	0	0	8	2	26	28
26	0	0	4	0	4	1	27
27	0	0	4	0	8	1	29
28	0	8	0	0	1	1	31
29	0	3	0	0	10	1	31
30	0	4	0	0	9	1	31
31	0	0	0	0	0	0
